Version identifier: 20.1.0.0 | 2020-11-10 | 9bedb6d68
Tried aggregator 2 times.
MIP Presolve eliminated 683 rows and 409 columns.
MIP Presolve modified 1301 coefficients.
Aggregator did 83 substitutions.
Reduced MIP has 515 rows, 415 columns, and 1632 nonzeros.
Reduced MIP has 102 binaries, 313 generals, 0 SOSs, and 0 indicators.
Presolve time = 0.01 sec. (2.76 ticks)
Found incumbent of value 632.000000 after 0.01 sec. (4.26 ticks)
Probing fixed 15 vars, tightened 129 bounds.
Probing time = 0.00 sec. (0.34 ticks)
Tried aggregator 2 times.
Detecting symmetries...
MIP Presolve eliminated 225 rows and 17 columns.
MIP Presolve modified 29 coefficients.
Aggregator did 2 substitutions.
Reduced MIP has 288 rows, 396 columns, and 936 nonzeros.
Reduced MIP has 150 binaries, 246 generals, 0 SOSs, and 0 indicators.
Presolve time = 0.00 sec. (1.30 ticks)
Probing time = 0.00 sec. (0.08 ticks)
Clique table members: 16.
MIP emphasis: balance optimality and feasibility.
MIP search method: dynamic search.
Parallel mode: deterministic, using up to 24 threads.
Root relaxation solution time = 0.00 sec. (1.01 ticks)

        Nodes                                         Cuts/
   Node  Left     Objective  IInf  Best Integer    Best Bound    ItCnt     Gap

*     0+    0                          632.0000        0.0000           100.00%
*     0+    0                           23.0000        0.0000           100.00%
      0     0        0.0000    32       23.0000        0.0000      127  100.00%
*     0+    0                           10.0000        0.0000           100.00%
      0     0        1.2857    45       10.0000      Cuts: 64      221   87.14%
      0     0        2.0000    82       10.0000      Cuts: 56      281   80.00%
*     0+    0                            9.0000        2.0000            77.78%
      0     0        2.0000    71        9.0000      Cuts: 34      299   77.78%
      0     0        2.0000    80        9.0000      Cuts: 27      360   77.78%
      0     0        2.0000    67        9.0000      Cuts: 14      370   77.78%
      0     0        2.0000    75        9.0000      Cuts: 35      390   77.78%
*     0+    0                            8.0000        2.0000            75.00%
*     0+    0                            7.0000        2.0000            71.43%
      0     0        cutoff              7.0000        7.0000      390    0.00%
Elapsed time = 0.33 sec. (36.14 ticks, tree = 0.01 MB, solutions = 6)

Cover cuts applied:  2
Implied bound cuts applied:  19
Mixed integer rounding cuts applied:  3
Zero-half cuts applied:  32
Lift and project cuts applied:  3
Gomory fractional cuts applied:  10

Root node processing (before b&c):
  Real time             =    0.33 sec. (36.20 ticks)
Parallel b&c, 24 threads:
  Real time             =    0.00 sec. (0.00 ticks)
  Sync time (average)   =    0.00 sec.
  Wait time (average)   =    0.00 sec.
                          ------------
Total (root+branch&cut) =    0.33 sec. (36.20 ticks)

Solution status = Optimal
Solution LB = 7
Solution UB = 7
Runtime = 0.339591 seconds
	Command being timed: "/home/min/git_repos/CS598MEBProject/CNT-ILP/build/cnt -s 2 ./output/k6_n15/simC_c1_k6_n15_u3_s2_del02.input-left.cnp"
	User time (seconds): 5.38
	System time (seconds): 0.02
	Percent of CPU this job got: 1452%
	Elapsed (wall clock) time (h:mm:ss or m:ss): 0:00.37
	Average shared text size (kbytes): 0
	Average unshared data size (kbytes): 0
	Average stack size (kbytes): 0
	Average total size (kbytes): 0
	Maximum resident set size (kbytes): 44792
	Average resident set size (kbytes): 0
	Major (requiring I/O) page faults: 0
	Minor (reclaiming a frame) page faults: 8213
	Voluntary context switches: 1471
	Involuntary context switches: 739
	Swaps: 0
	File system inputs: 0
	File system outputs: 16
	Socket messages sent: 0
	Socket messages received: 0
	Signals delivered: 0
	Page size (bytes): 4096
	Exit status: 0
